NAME : A-n45-k7
COMMENT : (Augerat et al, Min no of trucks: 7, Best value: 1146)
TYPE : CVRP
DIMENSION : 45
EDGE_WEIGHT_TYPE : EUC_2D 
CAPACITY : 100
NODE_COORD_SECTION 
 1 61 99
 2 95 7
 3 45 87
 4 15 47
 5 39 75
 6 55 23
 7 29 71
 8 87 79
 9 75 63
 10 65 61
 11 73 35
 12 17 35
 13 39 99
 14 75 77
 15 49 37
 16 85 31
 17 89 71
 18 89 43
 19 79 81
 20 45 5
 21 93 69
 22 49 69
 23 63 25
 24 93 33
 25 39 45
 26 89 33
 27 47 77
 28 29 19
 29 13 65
 30 33 9
 31 63 9
 32 41 13
 33 67 75
 34 41 27
 35 49 77
 36 57 81
 37 45 5
 38 83 7
 39 81 61
 40 57 81
 41 93 89
 42 17 13
 43 89 27
 44 7 25
 45 35 35
DEMAND_SECTION 
1 0 
2 14 
3 1 
4 16 
5 23 
6 12 
7 6 
8 5 
9 1 
10 13 
11 20 
12 14 
13 18 
14 7 
15 8 
16 21 
17 8 
18 24 
19 20 
20 19 
21 13 
22 3 
23 26 
24 17 
25 22 
26 8 
27 16 
28 20 
29 12 
30 22 
31 20 
32 12 
33 14 
34 25 
35 17 
36 19 
37 20 
38 15 
39 2 
40 9 
41 10 
42 6 
43 11 
44 21 
45 24 
DEPOT_SECTION 
 1  
 -1  
NODE_PRIORITY_SECTION
1 0
2 1
3 1
4 3
5 2
6 3
7 2
8 3
9 4
10 3
11 3
12 3
13 1
14 3
15 4
16 3
17 3
18 3
19 2
20 2
21 3
22 2
23 2
24 2
25 4
26 3
27 2
28 3
29 2
30 2
31 2
32 3
33 3
34 3
35 2
36 2
37 2
38 1
39 4
40 2
41 2
42 2
43 2
44 2
45 4
EOF
